
numDies = 20; % numero de dies
m = 3; % num linacs
s = 8; % num sessions per pacient
p = 45; % num pacients
tolerancia = 3; % diferencia maxima diaSesio i separacio
solicitud = 14; % dies maxims fins primera visita

disponible = [|  3,  3,  6,  3,  3, 13, 14, 19, 11,  9, 28, 30, 34, 20, 35, 49, 49, 49, 49, 49
              |  3,  3,  7,  8,  4, 21, 17, 19, 24, 21, 38, 32, 38, 38, 39, 49, 49, 49, 49, 49
              |  5,  7, 14,  8,  4, 22, 17, 21, 27, 22, 39, 34, 39, 40, 44, 49, 49, 49, 49, 49 |]; % capacitat de cada linac

duracio = [| 2, 2, 2, 2, 2, 2, 2, 2
            | 2, 2, 2, 2, 2, 2, 2, 2
            | 2, 2, 2, 2, 2, 2, 2, 2
            | 2, 2, 2, 2, 2, 2, 2, 2
            | 2, 2, 2, 2, 2, 2, 2, 2
            | 2, 2, 2, 2, 2, 2, 2, 2
            | 2, 2, 2, 2, 2, 2, 2, 2
            | 2, 2, 2, 2, 2, 2, 2, 2
            | 2, 2, 2, 2, 2, 2, 2, 2
            | 2, 2, 2, 2, 2, 2, 2, 2
            | 2, 2, 2, 2, 2, 3, 3, 3
            | 2, 2, 2, 2, 2, 3, 3, 3
            | 2, 2, 2, 2, 2, 3, 3, 3
            | 2, 2, 2, 2, 2, 3, 3, 3
            | 2, 2, 2, 2, 2, 3, 3, 3
            | 2, 2, 2, 2, 2, 3, 3, 3
            | 2, 2, 2, 2, 2, 3, 3, 3
            | 2, 2, 2, 2, 2, 3, 3, 3
            | 3, 3, 3, 3, 3, 2, 2, 2
            | 3, 3, 3, 3, 3, 2, 2, 2
            | 3, 3, 3, 3, 3, 2, 2, 2
            | 3, 3, 3, 3, 3, 2, 2, 2
            | 3, 3, 3, 3, 3, 2, 2, 2
            | 3, 3, 3, 3, 3, 2, 2, 2
            | 3, 3, 3, 3, 3, 2, 2, 2
            | 3, 3, 3, 3, 3, 2, 2, 2
            | 3, 3, 3, 3, 3, 2, 2, 2
            | 3, 3, 3, 3, 3, 2, 2, 2
            | 3, 3, 3, 3, 3, 2, 2, 2
            | 3, 3, 3, 3, 3, 2, 2, 2
            | 3, 3, 3, 3, 3, 2, 2, 2
            | 3, 3, 3, 3, 3, 2, 2, 2
            | 3, 3, 3, 3, 3, 3, 3, 3
            | 3, 3, 3, 3, 3, 3, 3, 3
            | 3, 3, 3, 3, 3, 3, 3, 3
            | 3, 3, 3, 3, 3, 3, 3, 3
            | 3, 3, 3, 3, 3, 3, 3, 3
            | 3, 3, 3, 3, 3, 3, 3, 3
            | 3, 3, 3, 3, 3, 3, 3, 3
            | 3, 3, 3, 3, 3, 3, 3, 3
            | 3, 3, 3, 3, 3, 3, 3, 3
            | 3, 3, 3, 3, 3, 3, 3, 3
            | 3, 3, 3, 3, 3, 3, 3, 3
            | 3, 3, 3, 3, 3, 3, 3, 3
            | 3, 3, 3, 3, 3, 3, 3, 3 |]; % duracion de la sesion (2 o 3 instants de temps)(30 o 45 mins)

separacio = [| 1, 2, 1, 2, 1, 2, 2
              | 1, 2, 2, 1, 1, 2, 1
              | 1, 2, 2, 1, 1, 2, 1
              | 1, 2, 2, 1, 1, 2, 1
              | 1, 2, 2, 1, 1, 2, 1
              | 1, 2, 2, 1, 1, 2, 1
              | 1, 2, 2, 1, 3, 1, 3
              | 1, 2, 2, 1, 3, 1, 3
              | 1, 2, 2, 1, 3, 1, 3
              | 1, 2, 2, 1, 3, 1, 3
              | 1, 2, 1, 2, 1, 2, 2
              | 1, 2, 1, 2, 1, 2, 2
              | 1, 2, 1, 2, 1, 2, 2
              | 1, 2, 1, 2, 1, 2, 2
              | 1, 2, 1, 2, 1, 2, 2
              | 1, 2, 1, 2, 1, 2, 2
              | 1, 2, 1, 2, 1, 2, 2
              | 1, 2, 2, 1, 1, 2, 1
              | 1, 2, 2, 1, 1, 2, 1
              | 1, 2, 2, 1, 1, 2, 1
              | 1, 2, 2, 1, 3, 1, 3
              | 1, 2, 2, 1, 3, 1, 3
              | 1, 2, 2, 1, 3, 1, 3
              | 1, 2, 1, 2, 1, 2, 2
              | 1, 2, 2, 1, 1, 2, 1
              | 1, 2, 2, 1, 1, 2, 1
              | 1, 2, 2, 1, 1, 2, 1
              | 1, 2, 2, 1, 3, 1, 3
              | 1, 2, 2, 1, 3, 1, 3
              | 1, 2, 2, 1, 3, 1, 3
              | 1, 2, 2, 1, 3, 1, 3
              | 1, 2, 2, 1, 1, 2, 1
              | 1, 2, 2, 1, 1, 2, 1
              | 1, 2, 2, 1, 1, 2, 1
              | 1, 2, 2, 1, 1, 2, 1
              | 1, 2, 2, 1, 1, 2, 1
              | 1, 2, 2, 1, 1, 2, 1
              | 1, 2, 2, 1, 1, 2, 1
              | 1, 2, 2, 1, 1, 2, 1
              | 1, 2, 2, 1, 1, 2, 1
              | 1, 2, 2, 1, 1, 2, 1
              | 1, 2, 2, 1, 1, 2, 1
              | 1, 2, 2, 1, 1, 2, 1
              | 1, 2, 2, 1, 1, 2, 1
              | 1, 2, 2, 1, 1, 2, 1 |]; % separacio ideal entre sesions 

grup = [1, 2, 2, 2, 2, 2, 3, 3, 3, 3, 4, 4, 4, 4, 4, 4, 4, 5, 5, 5, 6, 6, 6, 7, 8, 8, 8, 9, 9, 9, 9, 10, 10, 10, 10, 10, 10, 10, 10, 10, 10, 10, 10, 10, 10]; % pacients amb mateix grup son identics